nohup: ignoring input
original problem has 2000 variables (2000 bin, 0 int, 0 impl, 0 cont) and 3414 constraints
original problem has 2000 variables (2000 bin, 0 int, 0 impl, 0 cont) and 3476 constraints
original problem has 2000 variables (2000 bin, 0 int, 0 impl, 0 cont) and 3431 constraints
original problem has 2000 variables (2000 bin, 0 int, 0 impl, 0 cont) and 3399 constraints
original problem has 2000 variables (2000 bin, 0 int, 0 impl, 0 cont) and 3467 constraints
original problem has 2000 variables (2000 bin, 0 int, 0 impl, 0 cont) and 3473 constraints
original problem has 2000 variables (2000 bin, 0 int, 0 impl, 0 cont) and 3505 constraints
original problem has 2000 variables (2000 bin, 0 int, 0 impl, 0 cont) and 3423 constraints
